eastwest = 9;
northsouth = 5;
cost = [| 1, 1, 1, 1, 1, 1, 1, 1,-3
        | 1, 1, 1, 1, 1, 1, 1, 1, 1
        | 1, 1, 1, 1, 1, 1,-4, 1, 1
        | 1, 1, 1,-2, 1, 1, 1, 1, 1
        | 1, 1, 1, 1, 1, 1, 1, 1, 1 |];
ore = [| 4, 0, 0, 0, 0, 0, 0, 0, 0
       | 0, 6, 0, 0, 2, 0, 0, 4, 0
       | 0, 0, 0, 0, 0, 0, 0, 0, 0
       | 0, 0, 4, 0, 0, 0, 0, 0, 2
       | 0, 0, 0, 0, 4, 0, 0, 2, 6 
       |];
length = 12; 
budget = 18; 
start = [(1,1),(9,5)];